Traveling Salesman Problem/TSP_generados/Aleatorio1620391285_15.tsp
NAME: Aleatorio1620391285_15.tsp
COMMENT: Randomly generated scenario
TYPE: TSP
DIMENSION: 15
EDGE_WEIGHT_TYPE: ATT
NODE_COORD_SECTION
1 26.31 35.36
2 6.28 41.75
3 20.36 45.02
4 19.35 19.66
5 0.1 8.01
6 23.65 48.45
7 4.63 8.81
8 5.48 34.08
9 14.34 38.41
10 40.65 31.53
11 45.98 6.76
12 4.65 27.99
13 28.92 48.04
14 32.09 11.57
15 46.13 12.82
