Traveling Salesman Problem/TSP_generados/Aleatorio1620391285_15.opt.tour
NAME: Aleatorio1620391285_15.opt.tour
COMMENT: Optimal solution for Aleatorio1620391285_15 (168.0772044244686)
TYPE: TOUR
DIMENSION: 15
TOUR_SECTION
1 10 15 11 14 4 7 5 12 8 2 9 3 6 13
-1
EOF
